LAMMPS (2 Aug 2023)
  using 1 OpenMP thread(s) per MPI task

The 'box' command has been removed and will be ignored

Reading data file ...
  triclinic box = (0 0 0) to (22.326 11.1412 13.778966) with tilt (0 -5.02603 0)
  8 by 6 by 8 MPI processor grid
  reading atoms ...
  304 atoms
  reading velocities ...
  304 velocities
  read_data CPU = 0.011 seconds
Replication is creating a 16x16x16 = 4096 times larger system...
  triclinic box = (0 0 0) to (357.216 178.2592 220.46346) with tilt (0 -80.41648 0)
  8 by 6 by 8 MPI processor grid
  bounding box image = (0 -1 -1) to (0 1 1)
  bounding box extra memory = 0.03 MB
  average # of replicas added to proc = 45.80 out of 4096 (1.12%)
  1245184 atoms
  replicate CPU = 0.026 seconds
Neighbor list info ...
  update: every = 20 steps, delay = 0 steps, check = no
  max neighbors/atom: 2000, page size: 100000
  master list distance cutoff = 11
  ghost atom cutoff = 11
  binsize = 5.5, bins = 80 33 41
  2 neighbor lists, perpetual/occasional/extra = 2 0 0
  (1) pair reax/c, perpetual
      attributes: half, newton off, ghost
      pair build: half/bin/newtoff/ghost
      stencil: full/ghost/bin/3d
      bin: standard
  (2) fix qeq/reax, perpetual, copy from (1)
      attributes: half, newton off
      pair build: copy
      stencil: none
      bin: none
Setting up Verlet run ...
  Unit style    : real
  Current step  : 0
  Time step     : 0.1
Per MPI rank memory allocation (min/avg/max) = 252.5 | 252.7 | 253 Mbytes
   Step          Temp          PotEng         Press          E_vdwl         E_coul         Volume    
         0   300           -113.27833      439.01752     -111.57687     -1.7014647      14038460     
        10   300.73081     -113.28034      760.94145     -111.5789      -1.7014371      14038460     
        20   302.40503     -113.28519      1608.9656     -111.58386     -1.701329       14038460     
        30   302.60743     -113.28566      4236.8638     -111.58456     -1.7011047      14038460     
        40   300.76868     -113.28011      6369.2984     -111.57933     -1.7007825      14038460     
        50   297.70717     -113.27094      6473.1826     -111.57052     -1.7004207      14038460     
        60   295.02414     -113.26289      6227.817      -111.56283     -1.700056       14038460     
        70   294.7888      -113.26214      6852.2454     -111.56245     -1.6996881      14038460     
        80   297.69904     -113.27081      8267.1838     -111.57148     -1.699321       14038460     
        90   301.55671     -113.28231      9429.3031     -111.58331     -1.6989945      14038460     
       100   302.58175     -113.28531      10386.689     -111.58655     -1.6987601      14038460     
Loop time of 53.0351 on 384 procs for 100 steps with 1245184 atoms

Performance: 0.016 ns/day, 1473.198 hours/ns, 1.886 timesteps/s, 2.348 Matom-step/s
99.2% CPU use with 384 MPI tasks x 1 OpenMP threads

MPI task timing breakdown:
Section |  min time  |  avg time  |  max time  |%varavg| %total
---------------------------------------------------------------
Pair    | 31.737     | 36.384     | 41.025     |  24.6 | 68.60
Neigh   | 0.34269    | 0.34708    | 0.35221    |   0.4 |  0.65
Comm    | 0.091157   | 4.2931     | 9.378      |  74.0 |  8.09
Output  | 0.0013998  | 0.1573     | 0.42155    |  30.5 |  0.30
Modify  | 11.563     | 11.849     | 12.327     |  10.3 | 22.34
Other   |            | 0.004439   |            |       |  0.01

Nlocal:        3242.67 ave        3264 max        3214 min
Histogram: 9 38 56 23 2 7 54 111 68 16
Nghost:        12107.6 ave       12139 max       12071 min
Histogram: 14 19 44 41 28 51 73 69 38 7
Neighs:    1.07024e+06 ave 1.07661e+06 max 1.06119e+06 min
Histogram: 5 30 58 33 2 9 56 113 64 14

Total # of neighbors = 4.1097035e+08
Ave neighs/atom = 330.04789
Neighbor list builds = 5
Dangerous builds not checked
Total wall time: 0:00:54
