LAMMPS (2 Aug 2023)
OMP_NUM_THREADS environment is not set. Defaulting to 1 thread. (src/comm.cpp:98)
  using 1 OpenMP thread(s) per MPI task

The 'box' command has been removed and will be ignored

Reading data file ...
  triclinic box = (0 0 0) to (22.326 11.1412 13.778966) with tilt (0 -5.02603 0)
  8 by 6 by 8 MPI processor grid
  reading atoms ...
  304 atoms
  reading velocities ...
  304 velocities
  read_data CPU = 0.391 seconds
Replication is creating a 16x16x16 = 4096 times larger system...
  triclinic box = (0 0 0) to (357.216 178.2592 220.46346) with tilt (0 -80.41648 0)
  8 by 6 by 8 MPI processor grid
  bounding box image = (0 -1 -1) to (0 1 1)
  bounding box extra memory = 0.03 MB
  average # of replicas added to proc = 45.80 out of 4096 (1.12%)
  1245184 atoms
  replicate CPU = 0.092 seconds
Neighbor list info ...
  update: every = 20 steps, delay = 0 steps, check = no
  max neighbors/atom: 2000, page size: 100000
  master list distance cutoff = 11
  ghost atom cutoff = 11
  binsize = 5.5, bins = 80 33 41
  2 neighbor lists, perpetual/occasional/extra = 2 0 0
  (1) pair reax/c, perpetual
      attributes: half, newton off, ghost
      pair build: half/bin/newtoff/ghost
      stencil: full/ghost/bin/3d
      bin: standard
  (2) fix qeq/reax, perpetual, copy from (1)
      attributes: half, newton off
      pair build: copy
      stencil: none
      bin: none
Setting up Verlet run ...
  Unit style    : real
  Current step  : 0
  Time step     : 0.1
Per MPI rank memory allocation (min/avg/max) = 252.5 | 252.7 | 253 Mbytes
   Step          Temp          PotEng         Press          E_vdwl         E_coul         Volume    
         0   300           -113.27833      439.01752     -111.57687     -1.7014647      14038460     
        10   300.73081     -113.28034      760.94145     -111.5789      -1.7014371      14038460     
        20   302.40503     -113.28519      1608.9656     -111.58386     -1.701329       14038460     
        30   302.60743     -113.28566      4236.8638     -111.58456     -1.7011047      14038460     
        40   300.76868     -113.28011      6369.296      -111.57933     -1.7007825      14038460     
        50   297.70717     -113.27094      6473.2409     -111.57052     -1.7004206      14038460     
        60   295.02414     -113.26289      6227.8445     -111.56283     -1.7000559      14038460     
        70   294.78879     -113.26214      6852.2285     -111.56245     -1.6996882      14038460     
        80   297.69903     -113.27081      8267.1933     -111.57148     -1.6993209      14038460     
        90   301.55671     -113.28231      9429.3305     -111.58331     -1.6989944      14038460     
       100   302.58174     -113.28531      10386.687     -111.58655     -1.6987601      14038460     
Loop time of 77.8163 on 384 procs for 100 steps with 1245184 atoms

Performance: 0.011 ns/day, 2161.564 hours/ns, 1.285 timesteps/s, 1.600 Matom-step/s
99.2% CPU use with 384 MPI tasks x 1 OpenMP threads

MPI task timing breakdown:
Section |  min time  |  avg time  |  max time  |%varavg| %total
---------------------------------------------------------------
Pair    | 39.486     | 44.746     | 50.025     |  25.2 | 57.50
Neigh   | 0.72354    | 0.72841    | 0.7928     |   0.5 |  0.94
Comm    | 0.084063   | 3.9115     | 10.694     | 103.7 |  5.03
Output  | 0.0047247  | 0.31741    | 0.57775    |  26.8 |  0.41
Modify  | 26.866     | 28.111     | 30.814     |  20.7 | 36.12
Other   |            | 0.002076   |            |       |  0.00

Nlocal:        3242.67 ave        3264 max        3214 min
Histogram: 9 38 56 23 2 7 54 111 68 16
Nghost:        12107.6 ave       12139 max       12071 min
Histogram: 14 19 44 41 28 51 73 69 38 7
Neighs:    1.07024e+06 ave 1.07661e+06 max 1.06119e+06 min
Histogram: 5 30 58 33 2 9 56 113 64 14

Total # of neighbors = 4.1097035e+08
Ave neighs/atom = 330.04789
Neighbor list builds = 5
Dangerous builds not checked
Total wall time: 0:01:20
