LAMMPS (2 Aug 2023)
OMP_NUM_THREADS environment is not set. Defaulting to 1 thread. (src/comm.cpp:98)
  using 1 OpenMP thread(s) per MPI task

The 'box' command has been removed and will be ignored

Reading data file ...
  triclinic box = (0 0 0) to (22.326 11.1412 13.778966) with tilt (0 -5.02603 0)
  12 by 8 by 8 MPI processor grid
  reading atoms ...
  304 atoms
  reading velocities ...
  304 velocities
  read_data CPU = 0.215 seconds
Replication is creating a 16x16x16 = 4096 times larger system...
  triclinic box = (0 0 0) to (357.216 178.2592 220.46346) with tilt (0 -80.41648 0)
  12 by 8 by 8 MPI processor grid
  bounding box image = (0 -1 -1) to (0 1 1)
  bounding box extra memory = 0.03 MB
  average # of replicas added to proc = 34.25 out of 4096 (0.84%)
  1245184 atoms
  replicate CPU = 0.018 seconds
Neighbor list info ...
  update: every = 20 steps, delay = 0 steps, check = no
  max neighbors/atom: 2000, page size: 100000
  master list distance cutoff = 11
  ghost atom cutoff = 11
  binsize = 5.5, bins = 80 33 41
  2 neighbor lists, perpetual/occasional/extra = 2 0 0
  (1) pair reax/c, perpetual
      attributes: half, newton off, ghost
      pair build: half/bin/newtoff/ghost
      stencil: full/ghost/bin/3d
      bin: standard
  (2) fix qeq/reax, perpetual, copy from (1)
      attributes: half, newton off
      pair build: copy
      stencil: none
      bin: none
Setting up Verlet run ...
  Unit style    : real
  Current step  : 0
  Time step     : 0.1
Per MPI rank memory allocation (min/avg/max) = 166.1 | 167.7 | 170.4 Mbytes
   Step          Temp          PotEng         Press          E_vdwl         E_coul         Volume    
         0   300           -113.27833      439.01752     -111.57687     -1.7014647      14038460     
        10   300.73081     -113.28034      760.94146     -111.5789      -1.7014371      14038460     
        20   302.40503     -113.28519      1608.9657     -111.58386     -1.701329       14038460     
        30   302.60743     -113.28566      4236.7962     -111.58456     -1.7011049      14038460     
        40   300.76868     -113.28011      6369.2901     -111.57933     -1.7007825      14038460     
        50   297.70718     -113.27094      6473.2541     -111.57052     -1.7004206      14038460     
        60   295.02415     -113.26289      6227.8606     -111.56283     -1.7000559      14038460     
        70   294.7888      -113.26214      6852.2682     -111.56245     -1.6996881      14038460     
        80   297.69904     -113.27081      8267.1821     -111.57148     -1.699321       14038460     
        90   301.55671     -113.28231      9429.3178     -111.58331     -1.6989944      14038460     
       100   302.58174     -113.28531      10386.723     -111.58655     -1.6987601      14038460     
Loop time of 29.812 on 768 procs for 100 steps with 1245184 atoms

Performance: 0.029 ns/day, 828.111 hours/ns, 3.354 timesteps/s, 4.177 Matom-step/s
99.0% CPU use with 768 MPI tasks x 1 OpenMP threads

MPI task timing breakdown:
Section |  min time  |  avg time  |  max time  |%varavg| %total
---------------------------------------------------------------
Pair    | 11.791     | 13.483     | 14.899     |  14.7 | 45.23
Neigh   | 0.20903    | 0.2135     | 0.26354    |   1.0 |  0.72
Comm    | 0.58048    | 1.9255     | 3.9518     |  44.8 |  6.46
Output  | 0.25232    | 0.34468    | 0.40309    |   6.1 |  1.16
Modify  | 13.425     | 13.844     | 14.444     |   5.5 | 46.44
Other   |            | 0.001148   |            |       |  0.00

Nlocal:        1621.33 ave        1670 max        1589 min
Histogram: 151 197 158 6 0 0 0 2 148 106
Nghost:        8636.47 ave        8804 max        8529 min
Histogram: 222 282 8 0 0 0 0 0 12 244
Neighs:         562779 ave      577262 max      552472 min
Histogram: 122 173 182 35 0 0 0 1 146 109

Total # of neighbors = 4.3221461e+08
Ave neighs/atom = 347.10903
Neighbor list builds = 5
Dangerous builds not checked
Total wall time: 0:00:31
